-431.0 8.0 10.0 0.0 8.0 10.0 3.0 10.0 3.0 1.0 2.0 5.0 6.0 0.0 1.0 8.0 8.0 5.0 0.0 9.0 6.0 10.0 0.0 9.0 10.0 2.0 10.0 7.0 2.0 5.0 5.0 4.0 9.0 1.0 3.0 3.0 5.0 0.0 9.0 2.0 8.0 10.0 0.0 7.0 1.0 6.0 3.0 1.0 7.0 5.0 7.0 9.0 10.0 8.0 1.0 2.0 7.0 5.0 8.0 6.0 7.0 1.0 7.0 9.0 3.0 7.0 3.0 4.0 3.0 1.0 6.0 7.0 8.0 8.0 2.0 10.0 4.0 7.0 7.0 2.0 7.0 4.0 2.0 2.0 0.0 0.0 0.0 
8.0 -439.0 2.0 9.0 7.0 4.0 7.0 10.0 7.0 9.0 8.0 10.0 5.0 6.0 1.0 4.0 7.0 7.0 6.0 3.0 8.0 7.0 7.0 7.0 1.0 8.0 10.0 5.0 8.0 8.0 3.0 7.0 6.0 9.0 6.0 6.0 8.0 9.0 10.0 6.0 10.0 7.0 1.0 1.0 4.0 7.0 4.0 1.0 4.0 10.0 2.0 2.0 3.0 6.0 3.0 7.0 3.0 8.0 2.0 4.0 10.0 5.0 8.0 7.0 2.0 7.0 9.0 9.0 9.0 5.0 9.0 9.0 2.0 0.0 0.0 0.0 0.0 0.0 0.0 0.0 0.0 0.0 0.0 0.0 0.0 0.0 0.0 
10.0 2.0 -455.0 4.0 2.0 4.0 2.0 7.0 1.0 3.0 6.0 3.0 5.0 4.0 0.0 10.0 2.0 6.0 3.0 9.0 4.0 1.0 10.0 2.0 7.0 9.0 7.0 9.0 2.0 8.0 2.0 0.0 4.0 9.0 0.0 6.0 2.0 7.0 7.0 0.0 8.0 3.0 6.0 8.0 3.0 10.0 2.0 1.0 1.0 10.0 8.0 7.0 9.0 9.0 7.0 6.0 10.0 4.0 7.0 5.0 5.0 1.0 6.0 10.0 4.0 7.0 3.0 2.0 10.0 1.0 9.0 10.0 1.0 7.0 3.0 4.0 10.0 6.0 6.0 0.0 5.0 7.0 0.0 9.0 10.0 8.0 8.0 
0.0 9.0 4.0 -399.0 2.0 5.0 4.0 9.0 9.0 7.0 9.0 10.0 8.0 3.0 6.0 10.0 7.0 2.0 4.0 3.0 5.0 3.0 10.0 3.0 5.0 0.0 8.0 7.0 8.0 7.0 5.0 1.0 1.0 1.0 0.0 5.0 9.0 2.0 1.0 1.0 2.0 10.0 7.0 4.0 3.0 7.0 1.0 8.0 10.0 3.0 0.0 6.0 0.0 2.0 2.0 4.0 1.0 3.0 5.0 2.0 7.0 1.0 3.0 8.0 9.0 3.0 3.0 10.0 1.0 6.0 2.0 5.0 0.0 2.0 6.0 0.0 5.0 3.0 6.0 4.0 4.0 3.0 6.0 10.0 1.0 9.0 9.0 
8.0 7.0 2.0 2.0 -435.0 1.0 5.0 8.0 1.0 9.0 8.0 3.0 8.0 3.0 5.0 6.0 1.0 0.0 10.0 4.0 0.0 8.0 0.0 6.0 1.0 4.0 5.0 2.0 0.0 2.0 9.0 3.0 10.0 6.0 3.0 2.0 4.0 4.0 3.0 8.0 7.0 9.0 5.0 9.0 1.0 8.0 4.0 3.0 1.0 7.0 9.0 8.0 4.0 7.0 5.0 9.0 1.0 5.0 4.0 0.0 8.0 2.0 2.0 9.0 1.0 2.0 5.0 6.0 8.0 8.0 7.0 10.0 3.0 4.0 2.0 5.0 5.0 3.0 7.0 7.0 10.0 7.0 2.0 9.0 9.0 8.0 9.0 
10.0 4.0 4.0 5.0 1.0 -454.0 0.0 0.0 2.0 7.0 10.0 10.0 7.0 7.0 9.0 7.0 8.0 8.0 7.0 0.0 4.0 0.0 5.0 1.0 2.0 6.0 2.0 5.0 2.0 8.0 9.0 9.0 5.0 10.0 5.0 9.0 4.0 1.0 9.0 5.0 5.0 9.0 8.0 1.0 5.0 3.0 8.0 10.0 8.0 4.0 5.0 6.0 3.0 3.0 1.0 2.0 10.0 3.0 9.0 6.0 5.0 3.0 3.0 1.0 8.0 9.0 5.0 1.0 1.0 0.0 4.0 9.0 4.0 6.0 10.0 10.0 8.0 10.0 4.0 5.0 7.0 1.0 5.0 7.0 10.0 2.0 0.0 
3.0 7.0 2.0 4.0 5.0 0.0 -412.0 2.0 0.0 6.0 1.0 4.0 9.0 0.0 8.0 2.0 8.0 4.0 10.0 4.0 3.0 6.0 9.0 6.0 7.0 9.0 1.0 10.0 4.0 0.0 1.0 5.0 1.0 9.0 5.0 4.0 9.0 1.0 5.0 9.0 4.0 2.0 0.0 4.0 3.0 3.0 8.0 3.0 3.0 4.0 6.0 10.0 0.0 7.0 10.0 2.0 0.0 3.0 2.0 10.0 4.0 3.0 7.0 5.0 0.0 9.0 4.0 7.0 4.0 3.0 2.0 5.0 0.0 9.0 7.0 7.0 9.0 8.0 9.0 10.0 3.0 4.0 3.0 3.0 8.0 9.0 3.0 
10.0 10.0 7.0 9.0 8.0 0.0 2.0 -492.0 8.0 1.0 3.0 5.0 8.0 5.0 8.0 6.0 5.0 0.0 5.0 10.0 10.0 1.0 4.0 6.0 10.0 5.0 7.0 9.0 4.0 3.0 3.0 3.0 5.0 2.0 4.0 4.0 8.0 8.0 10.0 6.0 4.0 9.0 2.0 3.0 10.0 5.0 2.0 3.0 4.0 7.0 5.0 2.0 10.0 0.0 7.0 0.0 9.0 10.0 8.0 7.0 9.0 4.0 5.0 4.0 5.0 9.0 2.0 5.0 7.0 9.0 1.0 7.0 10.0 1.0 2.0 8.0 3.0 7.0 6.0 8.0 10.0 4.0 5.0 8.0 5.0 9.0 10.0 
3.0 7.0 1.0 9.0 1.0 2.0 0.0 8.0 -398.0 6.0 3.0 1.0 1.0 10.0 2.0 8.0 1.0 10.0 1.0 2.0 10.0 1.0 9.0 2.0 0.0 1.0 2.0 3.0 7.0 4.0 6.0 1.0 0.0 1.0 10.0 10.0 0.0 9.0 5.0 10.0 5.0 6.0 5.0 1.0 4.0 1.0 8.0 7.0 3.0 4.0 9.0 0.0 8.0 9.0 0.0 2.0 8.0 8.0 3.0 10.0 7.0 8.0 8.0 3.0 10.0 1.0 5.0 10.0 3.0 5.0 2.0 3.0 6.0 5.0 6.0 1.0 2.0 0.0 7.0 1.0 8.0 8.0 4.0 7.0 0.0 9.0 1.0 
1.0 9.0 3.0 7.0 9.0 7.0 6.0 1.0 6.0 -401.0 9.0 5.0 4.0 8.0 1.0 3.0 4.0 4.0 3.0 7.0 1.0 9.0 8.0 3.0 4.0 7.0 0.0 10.0 2.0 2.0 8.0 2.0 8.0 3.0 2.0 6.0 1.0 3.0 10.0 8.0 5.0 4.0 6.0 1.0 5.0 1.0 6.0 0.0 7.0 8.0 0.0 3.0 0.0 5.0 4.0 6.0 0.0 3.0 5.0 2.0 2.0 7.0 4.0 3.0 8.0 2.0 5.0 9.0 6.0 7.0 4.0 7.0 5.0 3.0 8.0 2.0 5.0 2.0 4.0 3.0 0.0 2.0 9.0 6.0 10.0 4.0 9.0 
2.0 8.0 6.0 9.0 8.0 10.0 1.0 3.0 3.0 9.0 -394.0 10.0 7.0 3.0 6.0 0.0 2.0 4.0 1.0 4.0 7.0 0.0 0.0 8.0 2.0 10.0 3.0 2.0 6.0 3.0 8.0 0.0 5.0 0.0 0.0 2.0 2.0 2.0 1.0 2.0 4.0 8.0 1.0 2.0 2.0 2.0 1.0 1.0 0.0 2.0 9.0 9.0 4.0 5.0 1.0 7.0 3.0 6.0 2.0 10.0 3.0 9.0 10.0 6.0 5.0 2.0 3.0 9.0 10.0 7.0 0.0 2.0 3.0 10.0 10.0 0.0 9.0 9.0 9.0 1.0 0.0 7.0 7.0 5.0 7.0 5.0 8.0 
5.0 10.0 3.0 10.0 3.0 10.0 4.0 5.0 1.0 5.0 10.0 -440.0 1.0 8.0 4.0 10.0 2.0 2.0 1.0 6.0 5.0 7.0 0.0 10.0 0.0 9.0 6.0 2.0 2.0 5.0 9.0 8.0 10.0 4.0 7.0 6.0 7.0 2.0 7.0 9.0 10.0 10.0 7.0 6.0 0.0 4.0 7.0 3.0 10.0 4.0 1.0 0.0 8.0 4.0 0.0 7.0 9.0 8.0 7.0 3.0 6.0 2.0 10.0 1.0 7.0 0.0 7.0 6.0 2.0 0.0 10.0 9.0 4.0 8.0 5.0 1.0 3.0 7.0 0.0 1.0 5.0 2.0 9.0 10.0 0.0 1.0 1.0 
6.0 5.0 5.0 8.0 8.0 7.0 9.0 8.0 1.0 4.0 7.0 1.0 -408.0 3.0 0.0 10.0 2.0 4.0 5.0 7.0 1.0 9.0 7.0 1.0 6.0 6.0 8.0 4.0 0.0 7.0 10.0 7.0 3.0 4.0 3.0 10.0 8.0 2.0 7.0 10.0 4.0 3.0 0.0 9.0 8.0 1.0 10.0 1.0 1.0 8.0 3.0 1.0 1.0 4.0 7.0 0.0 4.0 9.0 5.0 8.0 0.0 4.0 2.0 6.0 0.0 5.0 2.0 9.0 4.0 3.0 1.0 5.0 9.0 4.0 1.0 4.0 3.0 4.0 1.0 2.0 1.0 10.0 10.0 0.0 2.0 7.0 9.0 
0.0 6.0 4.0 3.0 3.0 7.0 0.0 5.0 10.0 8.0 3.0 8.0 3.0 -453.0 3.0 0.0 2.0 9.0 4.0 0.0 9.0 7.0 9.0 5.0 10.0 3.0 8.0 5.0 8.0 6.0 6.0 6.0 4.0 1.0 0.0 1.0 0.0 1.0 10.0 4.0 7.0 9.0 8.0 3.0 0.0 4.0 7.0 3.0 10.0 3.0 7.0 6.0 10.0 2.0 9.0 5.0 9.0 5.0 5.0 8.0 4.0 5.0 6.0 5.0 5.0 4.0 1.0 10.0 6.0 4.0 7.0 0.0 9.0 1.0 6.0 3.0 5.0 9.0 6.0 5.0 9.0 7.0 6.0 8.0 10.0 5.0 6.0 
1.0 1.0 0.0 6.0 5.0 9.0 8.0 8.0 2.0 1.0 6.0 4.0 0.0 3.0 -436.0 8.0 3.0 3.0 5.0 10.0 10.0 1.0 1.0 5.0 2.0 7.0 3.0 8.0 8.0 2.0 0.0 9.0 4.0 0.0 4.0 8.0 3.0 4.0 10.0 6.0 7.0 3.0 4.0 8.0 8.0 1.0 0.0 8.0 9.0 6.0 8.0 5.0 8.0 2.0 9.0 0.0 8.0 5.0 2.0 1.0 7.0 4.0 9.0 0.0 9.0 4.0 8.0 6.0 9.0 10.0 4.0 6.0 8.0 3.0 7.0 7.0 6.0 2.0 7.0 1.0 5.0 7.0 4.0 5.0 9.0 9.0 0.0 
8.0 4.0 10.0 10.0 6.0 7.0 2.0 6.0 8.0 3.0 0.0 10.0 10.0 0.0 8.0 -478.0 8.0 6.0 9.0 5.0 5.0 6.0 10.0 9.0 3.0 5.0 10.0 2.0 8.0 8.0 10.0 1.0 8.0 6.0 0.0 1.0 10.0 8.0 9.0 3.0 6.0 6.0 9.0 5.0 5.0 2.0 7.0 4.0 2.0 2.0 0.0 3.0 3.0 8.0 1.0 9.0 3.0 8.0 10.0 5.0 10.0 6.0 10.0 7.0 1.0 0.0 9.0 6.0 10.0 0.0 5.0 5.0 7.0 5.0 1.0 2.0 9.0 8.0 8.0 1.0 6.0 3.0 0.0 7.0 9.0 0.0 3.0 
8.0 7.0 2.0 7.0 1.0 8.0 8.0 5.0 1.0 4.0 2.0 2.0 2.0 2.0 3.0 8.0 -426.0 4.0 2.0 2.0 5.0 8.0 6.0 8.0 8.0 9.0 3.0 5.0 1.0 2.0 9.0 3.0 2.0 10.0 10.0 2.0 5.0 6.0 7.0 0.0 9.0 8.0 7.0 9.0 1.0 6.0 4.0 0.0 2.0 9.0 6.0 9.0 1.0 4.0 6.0 0.0 0.0 3.0 7.0 1.0 1.0 7.0 4.0 4.0 9.0 3.0 5.0 0.0 7.0 9.0 10.0 7.0 0.0 0.0 5.0 7.0 7.0 0.0 10.0 9.0 4.0 7.0 1.0 9.0 6.0 10.0 6.0 
5.0 7.0 6.0 2.0 0.0 8.0 4.0 0.0 10.0 4.0 4.0 2.0 4.0 9.0 3.0 6.0 4.0 -426.0 9.0 0.0 5.0 8.0 1.0 4.0 8.0 3.0 7.0 8.0 10.0 5.0 2.0 5.0 6.0 2.0 1.0 5.0 10.0 0.0 1.0 1.0 1.0 0.0 2.0 4.0 6.0 9.0 6.0 8.0 4.0 5.0 9.0 9.0 0.0 10.0 0.0 5.0 4.0 4.0 4.0 2.0 4.0 10.0 10.0 0.0 5.0 0.0 4.0 2.0 5.0 6.0 9.0 8.0 7.0 5.0 9.0 9.0 0.0 0.0 8.0 8.0 10.0 10.0 9.0 6.0 1.0 5.0 5.0 
0.0 6.0 3.0 4.0 10.0 7.0 10.0 5.0 1.0 3.0 1.0 1.0 5.0 4.0 5.0 9.0 2.0 9.0 -461.0 6.0 6.0 10.0 9.0 4.0 8.0 5.0 0.0 5.0 2.0 8.0 3.0 10.0 5.0 9.0 3.0 8.0 1.0 6.0 2.0 4.0 7.0 0.0 3.0 10.0 2.0 4.0 2.0 0.0 1.0 7.0 2.0 10.0 5.0 6.0 9.0 5.0 10.0 1.0 7.0 8.0 2.0 9.0 8.0 2.0 5.0 6.0 9.0 1.0 6.0 5.0 2.0 9.0 10.0 5.0 5.0 10.0 3.0 7.0 2.0 7.0 8.0 8.0 7.0 6.0 9.0 9.0 3.0 
9.0 3.0 9.0 3.0 4.0 0.0 4.0 10.0 2.0 7.0 4.0 6.0 7.0 0.0 10.0 5.0 2.0 0.0 6.0 -392.0 4.0 3.0 7.0 3.0 4.0 3.0 0.0 0.0 7.0 4.0 1.0 5.0 2.0 7.0 10.0 10.0 0.0 0.0 4.0 2.0 0.0 2.0 2.0 4.0 3.0 1.0 8.0 6.0 4.0 1.0 8.0 5.0 9.0 8.0 7.0 3.0 10.0 6.0 8.0 0.0 4.0 1.0 0.0 5.0 9.0 5.0 7.0 5.0 8.0 1.0 7.0 2.0 9.0 4.0 1.0 3.0 8.0 7.0 9.0 0.0 7.0 4.0 7.0 5.0 1.0 9.0 2.0 
6.0 8.0 4.0 5.0 0.0 4.0 3.0 10.0 10.0 1.0 7.0 5.0 1.0 9.0 10.0 5.0 5.0 5.0 6.0 4.0 -454.0 2.0 1.0 3.0 6.0 0.0 5.0 2.0 9.0 5.0 10.0 5.0 2.0 10.0 10.0 9.0 5.0 4.0 1.0 7.0 10.0 10.0 4.0 3.0 1.0 5.0 7.0 0.0 4.0 4.0 0.0 0.0 10.0 4.0 10.0 10.0 10.0 9.0 1.0 9.0 4.0 7.0 2.0 10.0 8.0 7.0 5.0 7.0 0.0 1.0 9.0 10.0 3.0 6.0 3.0 8.0 4.0 7.0 7.0 0.0 6.0 10.0 2.0 3.0 6.0 4.0 0.0 
10.0 7.0 1.0 3.0 8.0 0.0 6.0 1.0 1.0 9.0 0.0 7.0 9.0 7.0 1.0 6.0 8.0 8.0 10.0 3.0 2.0 -423.0 4.0 2.0 4.0 6.0 0.0 1.0 9.0 8.0 1.0 5.0 2.0 3.0 5.0 7.0 5.0 10.0 8.0 1.0 6.0 9.0 7.0 7.0 6.0 10.0 0.0 2.0 6.0 5.0 1.0 2.0 1.0 10.0 2.0 2.0 9.0 10.0 9.0 4.0 8.0 10.0 1.0 4.0 5.0 8.0 1.0 5.0 9.0 10.0 1.0 1.0 7.0 1.0 4.0 7.0 1.0 2.0 6.0 5.0 5.0 6.0 2.0 4.0 3.0 4.0 7.0 
0.0 7.0 10.0 10.0 0.0 5.0 9.0 4.0 9.0 8.0 0.0 0.0 7.0 9.0 1.0 10.0 6.0 1.0 9.0 7.0 1.0 4.0 -453.0 10.0 5.0 9.0 8.0 8.0 4.0 2.0 10.0 4.0 1.0 1.0 10.0 5.0 8.0 4.0 3.0 3.0 0.0 10.0 1.0 5.0 10.0 7.0 7.0 2.0 4.0 1.0 1.0 8.0 10.0 8.0 1.0 3.0 8.0 3.0 0.0 2.0 10.0 4.0 5.0 9.0 8.0 10.0 1.0 8.0 6.0 5.0 8.0 8.0 7.0 5.0 4.0 2.0 6.0 6.0 5.0 0.0 3.0 6.0 8.0 0.0 10.0 4.0 2.0 
9.0 7.0 2.0 3.0 6.0 1.0 6.0 6.0 2.0 3.0 8.0 10.0 1.0 5.0 5.0 9.0 8.0 4.0 4.0 3.0 3.0 2.0 10.0 -492.0 1.0 4.0 4.0 9.0 9.0 10.0 1.0 10.0 0.0 3.0 1.0 8.0 9.0 10.0 9.0 2.0 9.0 7.0 5.0 5.0 9.0 3.0 9.0 8.0 8.0 0.0 5.0 6.0 7.0 1.0 8.0 8.0 3.0 5.0 4.0 10.0 10.0 4.0 5.0 4.0 8.0 7.0 2.0 5.0 2.0 2.0 10.0 5.0 2.0 8.0 3.0 1.0 8.0 10.0 3.0 10.0 6.0 8.0 9.0 10.0 3.0 10.0 10.0 
10.0 1.0 7.0 5.0 1.0 2.0 7.0 10.0 0.0 4.0 2.0 0.0 6.0 10.0 2.0 3.0 8.0 8.0 8.0 4.0 6.0 4.0 5.0 1.0 -433.0 9.0 9.0 9.0 3.0 7.0 4.0 2.0 0.0 9.0 8.0 2.0 10.0 4.0 10.0 2.0 0.0 6.0 7.0 2.0 6.0 0.0 8.0 8.0 6.0 7.0 8.0 7.0 9.0 10.0 3.0 3.0 4.0 7.0 1.0 10.0 3.0 3.0 7.0 0.0 0.0 2.0 0.0 7.0 3.0 8.0 5.0 10.0 7.0 6.0 7.0 7.0 3.0 0.0 6.0 1.0 6.0 4.0 6.0 5.0 5.0 0.0 8.0 
2.0 8.0 9.0 0.0 4.0 6.0 9.0 5.0 1.0 7.0 10.0 9.0 6.0 3.0 7.0 5.0 9.0 3.0 5.0 3.0 0.0 6.0 9.0 4.0 9.0 -472.0 3.0 8.0 3.0 8.0 8.0 5.0 8.0 4.0 5.0 4.0 10.0 5.0 1.0 0.0 10.0 3.0 2.0 8.0 10.0 9.0 0.0 5.0 8.0 4.0 5.0 7.0 7.0 6.0 1.0 6.0 10.0 5.0 4.0 6.0 7.0 9.0 2.0 3.0 10.0 0.0 10.0 8.0 3.0 0.0 3.0 2.0 10.0 10.0 6.0 5.0 10.0 8.0 8.0 1.0 1.0 5.0 9.0 4.0 0.0 6.0 5.0 
10.0 10.0 7.0 8.0 5.0 2.0 1.0 7.0 2.0 0.0 3.0 6.0 8.0 8.0 3.0 10.0 3.0 7.0 0.0 0.0 5.0 0.0 8.0 4.0 9.0 3.0 -433.0 4.0 9.0 7.0 2.0 2.0 0.0 9.0 8.0 4.0 3.0 10.0 6.0 3.0 5.0 8.0 9.0 7.0 9.0 2.0 3.0 10.0 7.0 3.0 7.0 4.0 7.0 3.0 7.0 1.0 2.0 5.0 7.0 4.0 0.0 3.0 0.0 1.0 7.0 4.0 0.0 4.0 10.0 6.0 8.0 4.0 7.0 1.0 3.0 0.0 7.0 9.0 1.0 7.0 6.0 4.0 5.0 8.0 9.0 3.0 10.0 
7.0 5.0 9.0 7.0 2.0 5.0 10.0 9.0 3.0 10.0 2.0 2.0 4.0 5.0 8.0 2.0 5.0 8.0 5.0 0.0 2.0 1.0 8.0 9.0 9.0 8.0 4.0 -416.0 0.0 6.0 0.0 2.0 10.0 4.0 4.0 2.0 6.0 10.0 8.0 5.0 3.0 7.0 2.0 9.0 2.0 2.0 1.0 1.0 7.0 10.0 5.0 0.0 3.0 7.0 4.0 3.0 8.0 0.0 2.0 0.0 1.0 3.0 4.0 9.0 8.0 9.0 4.0 1.0 5.0 2.0 8.0 9.0 5.0 0.0 5.0 2.0 6.0 3.0 5.0 4.0 10.0 9.0 5.0 9.0 0.0 5.0 3.0 
2.0 8.0 2.0 8.0 0.0 2.0 4.0 4.0 7.0 2.0 6.0 2.0 0.0 8.0 8.0 8.0 1.0 10.0 2.0 7.0 9.0 9.0 4.0 9.0 3.0 3.0 9.0 0.0 -410.0 9.0 1.0 9.0 3.0 8.0 9.0 7.0 2.0 4.0 5.0 1.0 5.0 0.0 5.0 3.0 4.0 7.0 7.0 7.0 8.0 4.0 4.0 0.0 5.0 3.0 10.0 2.0 1.0 9.0 2.0 10.0 6.0 4.0 5.0 1.0 5.0 5.0 4.0 5.0 9.0 7.0 0.0 8.0 2.0 5.0 2.0 5.0 3.0 6.0 10.0 0.0 5.0 5.0 7.0 0.0 5.0 1.0 4.0 
5.0 8.0 8.0 7.0 2.0 8.0 0.0 3.0 4.0 2.0 3.0 5.0 7.0 6.0 2.0 8.0 2.0 5.0 8.0 4.0 5.0 8.0 2.0 10.0 7.0 8.0 7.0 6.0 9.0 -462.0 5.0 8.0 5.0 9.0 2.0 5.0 0.0 7.0 0.0 3.0 1.0 2.0 5.0 5.0 3.0 7.0 7.0 7.0 1.0 0.0 3.0 8.0 7.0 7.0 9.0 5.0 10.0 10.0 8.0 3.0 6.0 2.0 10.0 10.0 10.0 2.0 10.0 10.0 0.0 7.0 5.0 6.0 4.0 8.0 9.0 2.0 6.0 2.0 2.0 1.0 6.0 5.0 4.0 8.0 2.0 9.0 5.0 
5.0 3.0 2.0 5.0 9.0 9.0 1.0 3.0 6.0 8.0 8.0 9.0 10.0 6.0 0.0 10.0 9.0 2.0 3.0 1.0 10.0 1.0 10.0 1.0 4.0 8.0 2.0 0.0 1.0 5.0 -454.0 8.0 0.0 8.0 9.0 8.0 7.0 0.0 2.0 5.0 7.0 2.0 6.0 6.0 0.0 3.0 7.0 5.0 3.0 8.0 8.0 8.0 2.0 10.0 7.0 5.0 1.0 0.0 10.0 4.0 9.0 9.0 2.0 5.0 0.0 2.0 7.0 5.0 7.0 2.0 8.0 7.0 9.0 7.0 5.0 5.0 10.0 6.0 5.0 10.0 8.0 2.0 1.0 8.0 2.0 6.0 7.0 
4.0 7.0 0.0 1.0 3.0 9.0 5.0 3.0 1.0 2.0 0.0 8.0 7.0 6.0 9.0 1.0 3.0 5.0 10.0 5.0 5.0 5.0 4.0 10.0 2.0 5.0 2.0 2.0 9.0 8.0 8.0 -468.0 5.0 1.0 5.0 8.0 8.0 4.0 4.0 3.0 4.0 4.0 5.0 10.0 10.0 10.0 6.0 9.0 3.0 6.0 9.0 10.0 10.0 8.0 1.0 2.0 10.0 9.0 7.0 7.0 10.0 1.0 1.0 0.0 2.0 9.0 0.0 8.0 9.0 4.0 6.0 4.0 5.0 2.0 7.0 9.0 4.0 9.0 7.0 8.0 3.0 1.0 5.0 10.0 3.0 5.0 9.0 
9.0 6.0 4.0 1.0 10.0 5.0 1.0 5.0 0.0 8.0 5.0 10.0 3.0 4.0 4.0 8.0 2.0 6.0 5.0 2.0 2.0 2.0 1.0 0.0 0.0 8.0 0.0 10.0 3.0 5.0 0.0 5.0 -405.0 5.0 0.0 3.0 6.0 2.0 3.0 7.0 4.0 2.0 9.0 6.0 4.0 10.0 3.0 4.0 2.0 2.0 2.0 1.0 5.0 7.0 8.0 10.0 9.0 2.0 7.0 9.0 9.0 9.0 4.0 6.0 10.0 2.0 3.0 4.0 3.0 9.0 5.0 8.0 5.0 7.0 9.0 4.0 4.0 6.0 8.0 1.0 5.0 0.0 7.0 1.0 3.0 2.0 5.0 
1.0 9.0 9.0 1.0 6.0 10.0 9.0 2.0 1.0 3.0 0.0 4.0 4.0 1.0 0.0 6.0 10.0 2.0 9.0 7.0 10.0 3.0 1.0 3.0 9.0 4.0 9.0 4.0 8.0 9.0 8.0 1.0 5.0 -431.0 6.0 6.0 8.0 9.0 2.0 7.0 9.0 0.0 8.0 2.0 1.0 0.0 9.0 8.0 1.0 2.0 3.0 3.0 6.0 0.0 3.0 6.0 10.0 6.0 2.0 4.0 10.0 7.0 10.0 7.0 7.0 8.0 3.0 7.0 7.0 4.0 9.0 5.0 1.0 1.0 7.0 1.0 6.0 10.0 5.0 2.0 5.0 4.0 0.0 5.0 4.0 2.0 5.0 
3.0 6.0 0.0 0.0 3.0 5.0 5.0 4.0 10.0 2.0 0.0 7.0 3.0 0.0 4.0 0.0 10.0 1.0 3.0 10.0 10.0 5.0 10.0 1.0 8.0 5.0 8.0 4.0 9.0 2.0 9.0 5.0 0.0 6.0 -407.0 9.0 8.0 1.0 10.0 4.0 10.0 8.0 5.0 6.0 6.0 3.0 6.0 4.0 6.0 1.0 0.0 8.0 7.0 0.0 8.0 1.0 4.0 0.0 5.0 7.0 3.0 10.0 3.0 6.0 0.0 6.0 5.0 3.0 9.0 5.0 10.0 6.0 3.0 9.0 0.0 4.0 0.0 0.0 5.0 0.0 8.0 0.0 0.0 10.0 5.0 4.0 8.0 
3.0 6.0 6.0 5.0 2.0 9.0 4.0 4.0 10.0 6.0 2.0 6.0 10.0 1.0 8.0 1.0 2.0 5.0 8.0 10.0 9.0 7.0 5.0 8.0 2.0 4.0 4.0 2.0 7.0 5.0 8.0 8.0 3.0 6.0 9.0 -459.0 2.0 8.0 1.0 3.0 7.0 7.0 4.0 4.0 9.0 9.0 5.0 7.0 8.0 9.0 7.0 1.0 1.0 7.0 4.0 1.0 3.0 4.0 9.0 2.0 4.0 7.0 4.0 10.0 9.0 8.0 4.0 2.0 0.0 9.0 8.0 10.0 0.0 0.0 3.0 0.0 5.0 1.0 7.0 6.0 0.0 9.0 10.0 9.0 0.0 9.0 8.0 
5.0 8.0 2.0 9.0 4.0 4.0 9.0 8.0 0.0 1.0 2.0 7.0 8.0 0.0 3.0 10.0 5.0 10.0 1.0 0.0 5.0 5.0 8.0 9.0 10.0 10.0 3.0 6.0 2.0 0.0 7.0 8.0 6.0 8.0 8.0 2.0 -418.0 3.0 0.0 5.0 10.0 2.0 3.0 5.0 6.0 1.0 5.0 10.0 2.0 0.0 3.0 8.0 7.0 3.0 1.0 5.0 1.0 7.0 0.0 4.0 3.0 4.0 7.0 8.0 3.0 1.0 5.0 4.0 3.0 8.0 3.0 0.0 6.0 10.0 8.0 2.0 0.0 8.0 9.0 1.0 8.0 4.0 5.0 9.0 2.0 4.0 9.0 
0.0 9.0 7.0 2.0 4.0 1.0 1.0 8.0 9.0 3.0 2.0 2.0 2.0 1.0 4.0 8.0 6.0 0.0 6.0 0.0 4.0 10.0 4.0 10.0 4.0 5.0 10.0 10.0 4.0 7.0 0.0 4.0 2.0 9.0 1.0 8.0 3.0 -387.0 2.0 5.0 5.0 1.0 9.0 4.0 3.0 0.0 3.0 0.0 9.0 4.0 6.0 6.0 4.0 3.0 7.0 2.0 8.0 1.0 1.0 9.0 4.0 1.0 1.0 0.0 6.0 7.0 6.0 6.0 1.0 0.0 8.0 9.0 0.0 0.0 3.0 8.0 4.0 10.0 1.0 10.0 10.0 3.0 3.0 8.0 5.0 6.0 5.0 
9.0 10.0 7.0 1.0 3.0 9.0 5.0 10.0 5.0 10.0 1.0 7.0 7.0 10.0 10.0 9.0 7.0 1.0 2.0 4.0 1.0 8.0 3.0 9.0 10.0 1.0 6.0 8.0 5.0 0.0 2.0 4.0 3.0 2.0 10.0 1.0 0.0 2.0 -430.0 3.0 8.0 0.0 0.0 8.0 7.0 1.0 5.0 7.0 8.0 9.0 2.0 7.0 10.0 5.0 0.0 9.0 0.0 5.0 1.0 3.0 4.0 2.0 1.0 4.0 9.0 2.0 10.0 3.0 5.0 7.0 5.0 4.0 3.0 6.0 2.0 7.0 4.0 9.0 8.0 8.0 7.0 2.0 5.0 4.0 0.0 7.0 2.0 
2.0 6.0 0.0 1.0 8.0 5.0 9.0 6.0 10.0 8.0 2.0 9.0 10.0 4.0 6.0 3.0 0.0 1.0 4.0 2.0 7.0 1.0 3.0 2.0 2.0 0.0 3.0 5.0 1.0 3.0 5.0 3.0 7.0 7.0 4.0 3.0 5.0 5.0 3.0 -428.0 10.0 7.0 1.0 10.0 7.0 0.0 6.0 3.0 3.0 5.0 3.0 5.0 1.0 0.0 6.0 9.0 8.0 6.0 9.0 5.0 2.0 9.0 3.0 0.0 6.0 5.0 7.0 2.0 10.0 9.0 0.0 9.0 8.0 10.0 6.0 9.0 9.0 10.0 6.0 3.0 8.0 8.0 6.0 0.0 3.0 1.0 10.0 
8.0 10.0 8.0 2.0 7.0 5.0 4.0 4.0 5.0 5.0 4.0 10.0 4.0 7.0 7.0 6.0 9.0 1.0 7.0 0.0 10.0 6.0 0.0 9.0 0.0 10.0 5.0 3.0 5.0 1.0 7.0 4.0 4.0 9.0 10.0 7.0 10.0 5.0 8.0 10.0 -485.0 1.0 9.0 4.0 7.0 6.0 4.0 2.0 3.0 3.0 4.0 9.0 1.0 6.0 2.0 3.0 4.0 2.0 5.0 7.0 8.0 7.0 6.0 5.0 2.0 9.0 4.0 8.0 7.0 6.0 1.0 2.0 8.0 7.0 5.0 0.0 10.0 8.0 6.0 5.0 3.0 8.0 7.0 9.0 8.0 9.0 9.0 
10.0 7.0 3.0 10.0 9.0 9.0 2.0 9.0 6.0 4.0 8.0 10.0 3.0 9.0 3.0 6.0 8.0 0.0 0.0 2.0 10.0 9.0 10.0 7.0 6.0 3.0 8.0 7.0 0.0 2.0 2.0 4.0 2.0 0.0 8.0 7.0 2.0 1.0 0.0 7.0 1.0 -457.0 9.0 1.0 8.0 9.0 1.0 6.0 3.0 10.0 10.0 6.0 7.0 0.0 0.0 4.0 9.0 10.0 10.0 9.0 7.0 5.0 0.0 4.0 1.0 6.0 8.0 10.0 7.0 1.0 4.0 1.0 6.0 3.0 6.0 6.0 4.0 0.0 2.0 8.0 7.0 4.0 9.0 6.0 0.0 6.0 10.0 
0.0 1.0 6.0 7.0 5.0 8.0 0.0 2.0 5.0 6.0 1.0 7.0 0.0 8.0 4.0 9.0 7.0 2.0 3.0 2.0 4.0 7.0 1.0 5.0 7.0 2.0 9.0 2.0 5.0 5.0 6.0 5.0 9.0 8.0 5.0 4.0 3.0 9.0 0.0 1.0 9.0 9.0 -420.0 8.0 2.0 9.0 1.0 7.0 6.0 3.0 6.0 4.0 1.0 2.0 5.0 4.0 5.0 3.0 7.0 4.0 10.0 1.0 5.0 7.0 6.0 4.0 7.0 2.0 8.0 9.0 4.0 1.0 3.0 2.0 4.0 5.0 10.0 1.0 9.0 10.0 7.0 8.0 3.0 1.0 4.0 5.0 9.0 
7.0 1.0 8.0 4.0 9.0 1.0 4.0 3.0 1.0 1.0 2.0 6.0 9.0 3.0 8.0 5.0 9.0 4.0 10.0 4.0 3.0 7.0 5.0 5.0 2.0 8.0 7.0 9.0 3.0 5.0 6.0 10.0 6.0 2.0 6.0 4.0 5.0 4.0 8.0 10.0 4.0 1.0 8.0 -422.0 3.0 1.0 1.0 9.0 2.0 1.0 0.0 0.0 3.0 9.0 0.0 8.0 8.0 1.0 4.0 0.0 6.0 7.0 7.0 2.0 2.0 3.0 10.0 7.0 2.0 8.0 6.0 4.0 1.0 8.0 0.0 7.0 4.0 10.0 9.0 6.0 2.0 5.0 8.0 8.0 1.0 6.0 6.0 
1.0 4.0 3.0 3.0 1.0 5.0 3.0 10.0 4.0 5.0 2.0 0.0 8.0 0.0 8.0 5.0 1.0 6.0 2.0 3.0 1.0 6.0 10.0 9.0 6.0 10.0 9.0 2.0 4.0 3.0 0.0 10.0 4.0 1.0 6.0 9.0 6.0 3.0 7.0 7.0 7.0 8.0 2.0 3.0 -447.0 0.0 10.0 10.0 9.0 2.0 3.0 2.0 7.0 8.0 9.0 8.0 4.0 7.0 6.0 9.0 5.0 2.0 9.0 6.0 3.0 6.0 5.0 9.0 5.0 5.0 6.0 6.0 1.0 10.0 8.0 4.0 9.0 8.0 1.0 10.0 1.0 7.0 2.0 8.0 5.0 4.0 1.0 
6.0 7.0 10.0 7.0 8.0 3.0 3.0 5.0 1.0 1.0 2.0 4.0 1.0 4.0 1.0 2.0 6.0 9.0 4.0 1.0 5.0 10.0 7.0 3.0 0.0 9.0 2.0 2.0 7.0 7.0 3.0 10.0 10.0 0.0 3.0 9.0 1.0 0.0 1.0 0.0 6.0 9.0 9.0 1.0 0.0 -387.0 8.0 8.0 3.0 0.0 7.0 8.0 8.0 4.0 2.0 9.0 2.0 3.0 2.0 8.0 5.0 8.0 8.0 4.0 4.0 6.0 2.0 3.0 5.0 8.0 6.0 0.0 1.0 7.0 2.0 7.0 5.0 0.0 10.0 1.0 2.0 1.0 1.0 3.0 6.0 6.0 5.0 
3.0 4.0 2.0 1.0 4.0 8.0 8.0 2.0 8.0 6.0 1.0 7.0 10.0 7.0 0.0 7.0 4.0 6.0 2.0 8.0 7.0 0.0 7.0 9.0 8.0 0.0 3.0 1.0 7.0 7.0 7.0 6.0 3.0 9.0 6.0 5.0 5.0 3.0 5.0 6.0 4.0 1.0 1.0 1.0 10.0 8.0 -420.0 1.0 10.0 1.0 10.0 0.0 7.0 0.0 10.0 3.0 1.0 9.0 7.0 9.0 2.0 10.0 8.0 3.0 2.0 5.0 7.0 6.0 0.0 4.0 6.0 1.0 8.0 4.0 1.0 2.0 3.0 5.0 7.0 1.0 1.0 9.0 10.0 7.0 3.0 2.0 8.0 
1.0 1.0 1.0 8.0 3.0 10.0 3.0 3.0 7.0 0.0 1.0 3.0 1.0 3.0 8.0 4.0 0.0 8.0 0.0 6.0 0.0 2.0 2.0 8.0 8.0 5.0 10.0 1.0 7.0 7.0 5.0 9.0 4.0 8.0 4.0 7.0 10.0 0.0 7.0 3.0 2.0 6.0 7.0 9.0 10.0 8.0 1.0 -434.0 5.0 0.0 7.0 3.0 0.0 1.0 8.0 7.0 0.0 9.0 7.0 1.0 10.0 8.0 3.0 10.0 0.0 7.0 9.0 9.0 6.0 7.0 10.0 4.0 7.0 9.0 3.0 10.0 5.0 1.0 10.0 3.0 1.0 5.0 1.0 8.0 9.0 0.0 10.0 
7.0 4.0 1.0 10.0 1.0 8.0 3.0 4.0 3.0 7.0 0.0 10.0 1.0 10.0 9.0 2.0 2.0 4.0 1.0 4.0 4.0 6.0 4.0 8.0 6.0 8.0 7.0 7.0 8.0 1.0 3.0 3.0 2.0 1.0 6.0 8.0 2.0 9.0 8.0 3.0 3.0 3.0 6.0 2.0 9.0 3.0 10.0 5.0 -434.0 4.0 9.0 3.0 4.0 9.0 1.0 9.0 0.0 9.0 8.0 6.0 4.0 6.0 4.0 3.0 5.0 10.0 5.0 0.0 7.0 6.0 2.0 2.0 0.0 3.0 10.0 8.0 1.0 8.0 2.0 7.0 10.0 1.0 5.0 8.0 7.0 2.0 10.0 
5.0 10.0 10.0 3.0 7.0 4.0 4.0 7.0 4.0 8.0 2.0 4.0 8.0 3.0 6.0 2.0 9.0 5.0 7.0 1.0 4.0 5.0 1.0 0.0 7.0 4.0 3.0 10.0 4.0 0.0 8.0 6.0 2.0 2.0 1.0 9.0 0.0 4.0 9.0 5.0 3.0 10.0 3.0 1.0 2.0 0.0 1.0 0.0 4.0 -411.0 3.0 6.0 1.0 10.0 5.0 3.0 9.0 1.0 2.0 1.0 10.0 2.0 6.0 3.0 8.0 6.0 3.0 9.0 7.0 10.0 3.0 10.0 3.0 10.0 10.0 3.0 1.0 8.0 9.0 6.0 3.0 3.0 0.0 9.0 3.0 5.0 3.0 
7.0 2.0 8.0 0.0 9.0 5.0 6.0 5.0 9.0 0.0 9.0 1.0 3.0 7.0 8.0 0.0 6.0 9.0 2.0 8.0 0.0 1.0 1.0 5.0 8.0 5.0 7.0 5.0 4.0 3.0 8.0 9.0 2.0 3.0 0.0 7.0 3.0 6.0 2.0 3.0 4.0 10.0 6.0 0.0 3.0 7.0 10.0 7.0 9.0 3.0 -436.0 9.0 2.0 8.0 3.0 7.0 6.0 9.0 4.0 9.0 4.0 8.0 3.0 3.0 6.0 7.0 0.0 7.0 8.0 4.0 8.0 1.0 8.0 9.0 2.0 9.0 2.0 1.0 2.0 6.0 1.0 9.0 4.0 4.0 7.0 8.0 3.0 
9.0 2.0 7.0 6.0 8.0 6.0 10.0 2.0 0.0 3.0 9.0 0.0 1.0 6.0 5.0 3.0 9.0 9.0 10.0 5.0 0.0 2.0 8.0 6.0 7.0 7.0 4.0 0.0 0.0 8.0 8.0 10.0 1.0 3.0 8.0 1.0 8.0 6.0 7.0 5.0 9.0 6.0 4.0 0.0 2.0 8.0 0.0 3.0 3.0 6.0 9.0 -427.0 3.0 4.0 5.0 4.0 3.0 3.0 2.0 8.0 10.0 4.0 6.0 3.0 6.0 1.0 10.0 0.0 4.0 6.0 1.0 8.0 1.0 0.0 5.0 8.0 4.0 3.0 10.0 9.0 8.0 9.0 6.0 5.0 1.0 7.0 1.0 
10.0 3.0 9.0 0.0 4.0 3.0 0.0 10.0 8.0 0.0 4.0 8.0 1.0 10.0 8.0 3.0 1.0 0.0 5.0 9.0 10.0 1.0 10.0 7.0 9.0 7.0 7.0 3.0 5.0 7.0 2.0 10.0 5.0 6.0 7.0 1.0 7.0 4.0 10.0 1.0 1.0 7.0 1.0 3.0 7.0 8.0 7.0 0.0 4.0 1.0 2.0 3.0 -414.0 0.0 8.0 6.0 9.0 1.0 1.0 3.0 1.0 1.0 9.0 9.0 0.0 4.0 9.0 2.0 1.0 6.0 6.0 5.0 3.0 2.0 4.0 10.0 3.0 7.0 0.0 10.0 6.0 5.0 9.0 6.0 1.0 2.0 6.0 
8.0 6.0 9.0 2.0 7.0 3.0 7.0 0.0 9.0 5.0 5.0 4.0 4.0 2.0 2.0 8.0 4.0 10.0 6.0 8.0 4.0 10.0 8.0 1.0 10.0 6.0 3.0 7.0 3.0 7.0 10.0 8.0 7.0 0.0 0.0 7.0 3.0 3.0 5.0 0.0 6.0 0.0 2.0 9.0 8.0 4.0 0.0 1.0 9.0 10.0 8.0 4.0 0.0 -428.0 1.0 0.0 1.0 7.0 8.0 2.0 5.0 3.0 6.0 1.0 8.0 1.0 3.0 1.0 9.0 8.0 6.0 2.0 2.0 10.0 2.0 4.0 4.0 5.0 7.0 7.0 8.0 4.0 9.0 1.0 10.0 1.0 10.0 
1.0 3.0 7.0 2.0 5.0 1.0 10.0 7.0 0.0 4.0 1.0 0.0 7.0 9.0 9.0 1.0 6.0 0.0 9.0 7.0 10.0 2.0 1.0 8.0 3.0 1.0 7.0 4.0 10.0 9.0 7.0 1.0 8.0 3.0 8.0 4.0 1.0 7.0 0.0 6.0 2.0 0.0 5.0 0.0 9.0 2.0 10.0 8.0 1.0 5.0 3.0 5.0 8.0 1.0 -451.0 5.0 8.0 7.0 5.0 7.0 8.0 9.0 8.0 6.0 5.0 10.0 2.0 9.0 7.0 9.0 1.0 10.0 10.0 9.0 8.0 0.0 9.0 4.0 5.0 4.0 6.0 10.0 6.0 1.0 2.0 9.0 4.0 
2.0 7.0 6.0 4.0 9.0 2.0 2.0 0.0 2.0 6.0 7.0 7.0 0.0 5.0 0.0 9.0 0.0 5.0 5.0 3.0 10.0 2.0 3.0 8.0 3.0 6.0 1.0 3.0 2.0 5.0 5.0 2.0 10.0 6.0 1.0 1.0 5.0 2.0 9.0 9.0 3.0 4.0 4.0 8.0 8.0 9.0 3.0 7.0 9.0 3.0 7.0 4.0 6.0 0.0 5.0 -421.0 7.0 9.0 8.0 6.0 3.0 3.0 9.0 5.0 1.0 6.0 9.0 9.0 8.0 3.0 1.0 7.0 4.0 7.0 2.0 1.0 6.0 9.0 5.0 0.0 6.0 5.0 8.0 2.0 6.0 2.0 10.0 
7.0 3.0 10.0 1.0 1.0 10.0 0.0 9.0 8.0 0.0 3.0 9.0 4.0 9.0 8.0 3.0 0.0 4.0 10.0 10.0 10.0 9.0 8.0 3.0 4.0 10.0 2.0 8.0 1.0 10.0 1.0 10.0 9.0 10.0 4.0 3.0 1.0 8.0 0.0 8.0 4.0 9.0 5.0 8.0 4.0 2.0 1.0 0.0 0.0 9.0 6.0 3.0 9.0 1.0 8.0 7.0 -472.0 9.0 9.0 1.0 3.0 8.0 0.0 8.0 0.0 3.0 9.0 7.0 1.0 8.0 6.0 5.0 6.0 9.0 9.0 4.0 9.0 8.0 3.0 9.0 10.0 1.0 3.0 8.0 2.0 8.0 2.0 
5.0 8.0 4.0 3.0 5.0 3.0 3.0 10.0 8.0 3.0 6.0 8.0 9.0 5.0 5.0 8.0 3.0 4.0 1.0 6.0 9.0 10.0 3.0 5.0 7.0 5.0 5.0 0.0 9.0 10.0 0.0 9.0 2.0 6.0 0.0 4.0 7.0 1.0 5.0 6.0 2.0 10.0 3.0 1.0 7.0 3.0 9.0 9.0 9.0 1.0 9.0 3.0 1.0 7.0 7.0 9.0 9.0 -449.0 1.0 6.0 7.0 1.0 9.0 1.0 2.0 2.0 4.0 3.0 9.0 5.0 2.0 8.0 10.0 7.0 1.0 3.0 3.0 6.0 0.0 10.0 7.0 7.0 4.0 6.0 5.0 2.0 9.0 
8.0 2.0 7.0 5.0 4.0 9.0 2.0 8.0 3.0 5.0 2.0 7.0 5.0 5.0 2.0 10.0 7.0 4.0 7.0 8.0 1.0 9.0 0.0 4.0 1.0 4.0 7.0 2.0 2.0 8.0 10.0 7.0 7.0 2.0 5.0 9.0 0.0 1.0 1.0 9.0 5.0 10.0 7.0 4.0 6.0 2.0 7.0 7.0 8.0 2.0 4.0 2.0 1.0 8.0 5.0 8.0 9.0 1.0 -464.0 0.0 10.0 3.0 9.0 6.0 10.0 1.0 9.0 1.0 10.0 9.0 1.0 4.0 8.0 0.0 7.0 9.0 5.0 9.0 9.0 6.0 6.0 5.0 10.0 10.0 5.0 1.0 6.0 
6.0 4.0 5.0 2.0 0.0 6.0 10.0 7.0 10.0 2.0 10.0 3.0 8.0 8.0 1.0 5.0 1.0 2.0 8.0 0.0 9.0 4.0 2.0 10.0 10.0 6.0 4.0 0.0 10.0 3.0 4.0 7.0 9.0 4.0 7.0 2.0 4.0 9.0 3.0 5.0 7.0 9.0 4.0 0.0 9.0 8.0 9.0 1.0 6.0 1.0 9.0 8.0 3.0 2.0 7.0 6.0 1.0 6.0 0.0 -457.0 4.0 6.0 8.0 1.0 0.0 4.0 1.0 6.0 9.0 9.0 6.0 5.0 6.0 4.0 6.0 10.0 9.0 10.0 6.0 6.0 1.0 3.0 5.0 5.0 10.0 2.0 9.0 
7.0 10.0 5.0 7.0 8.0 5.0 4.0 9.0 7.0 2.0 3.0 6.0 0.0 4.0 7.0 10.0 1.0 4.0 2.0 4.0 4.0 8.0 10.0 10.0 3.0 7.0 0.0 1.0 6.0 6.0 9.0 10.0 9.0 10.0 3.0 4.0 3.0 4.0 4.0 2.0 8.0 7.0 10.0 6.0 5.0 5.0 2.0 10.0 4.0 10.0 4.0 10.0 1.0 5.0 8.0 3.0 3.0 7.0 10.0 4.0 -476.0 10.0 5.0 2.0 0.0 9.0 7.0 7.0 9.0 2.0 6.0 1.0 8.0 1.0 7.0 1.0 4.0 9.0 7.0 6.0 0.0 4.0 2.0 10.0 4.0 10.0 5.0 
1.0 5.0 1.0 1.0 2.0 3.0 3.0 4.0 8.0 7.0 9.0 2.0 4.0 5.0 4.0 6.0 7.0 10.0 9.0 1.0 7.0 10.0 4.0 4.0 3.0 9.0 3.0 3.0 4.0 2.0 9.0 1.0 9.0 7.0 10.0 7.0 4.0 1.0 2.0 9.0 7.0 5.0 1.0 7.0 2.0 8.0 10.0 8.0 6.0 2.0 8.0 4.0 1.0 3.0 9.0 3.0 8.0 1.0 3.0 6.0 10.0 -422.0 6.0 1.0 7.0 5.0 7.0 5.0 2.0 0.0 2.0 6.0 7.0 3.0 6.0 9.0 0.0 5.0 5.0 1.0 5.0 7.0 4.0 3.0 8.0 3.0 3.0 
7.0 8.0 6.0 3.0 2.0 3.0 7.0 5.0 8.0 4.0 10.0 10.0 2.0 6.0 9.0 10.0 4.0 10.0 8.0 0.0 2.0 1.0 5.0 5.0 7.0 2.0 0.0 4.0 5.0 10.0 2.0 1.0 4.0 10.0 3.0 4.0 7.0 1.0 1.0 3.0 6.0 0.0 5.0 7.0 9.0 8.0 8.0 3.0 4.0 6.0 3.0 6.0 9.0 6.0 8.0 9.0 0.0 9.0 9.0 8.0 5.0 6.0 -451.0 6.0 6.0 0.0 2.0 5.0 3.0 1.0 7.0 4.0 10.0 1.0 6.0 10.0 6.0 5.0 2.0 7.0 8.0 9.0 9.0 5.0 6.0 0.0 0.0 
9.0 7.0 10.0 8.0 9.0 1.0 5.0 4.0 3.0 3.0 6.0 1.0 6.0 5.0 0.0 7.0 4.0 0.0 2.0 5.0 10.0 4.0 9.0 4.0 0.0 3.0 1.0 9.0 1.0 10.0 5.0 0.0 6.0 7.0 6.0 10.0 8.0 0.0 4.0 0.0 5.0 4.0 7.0 2.0 6.0 4.0 3.0 10.0 3.0 3.0 3.0 3.0 9.0 1.0 6.0 5.0 8.0 1.0 6.0 1.0 2.0 1.0 6.0 -388.0 6.0 1.0 8.0 0.0 0.0 0.0 1.0 9.0 4.0 6.0 7.0 9.0 1.0 1.0 4.0 3.0 6.0 2.0 9.0 8.0 2.0 3.0 7.0 
3.0 2.0 4.0 9.0 1.0 8.0 0.0 5.0 10.0 8.0 5.0 7.0 0.0 5.0 9.0 1.0 9.0 5.0 5.0 9.0 8.0 5.0 8.0 8.0 0.0 10.0 7.0 8.0 5.0 10.0 0.0 2.0 10.0 7.0 0.0 9.0 3.0 6.0 9.0 6.0 2.0 1.0 6.0 2.0 3.0 4.0 2.0 0.0 5.0 8.0 6.0 6.0 0.0 8.0 5.0 1.0 0.0 2.0 10.0 0.0 0.0 7.0 6.0 6.0 -445.0 3.0 9.0 3.0 2.0 10.0 10.0 7.0 9.0 7.0 8.0 4.0 2.0 8.0 6.0 0.0 4.0 7.0 6.0 1.0 10.0 8.0 5.0 
7.0 7.0 7.0 3.0 2.0 9.0 9.0 9.0 1.0 2.0 2.0 0.0 5.0 4.0 4.0 0.0 3.0 0.0 6.0 5.0 7.0 8.0 10.0 7.0 2.0 0.0 4.0 9.0 5.0 2.0 2.0 9.0 2.0 8.0 6.0 8.0 1.0 7.0 2.0 5.0 9.0 6.0 4.0 3.0 6.0 6.0 5.0 7.0 10.0 6.0 7.0 1.0 4.0 1.0 10.0 6.0 3.0 2.0 1.0 4.0 9.0 5.0 0.0 1.0 3.0 -387.0 3.0 3.0 8.0 0.0 9.0 2.0 5.0 8.0 4.0 5.0 7.0 0.0 2.0 7.0 2.0 0.0 5.0 3.0 3.0 0.0 3.0 
3.0 9.0 3.0 3.0 5.0 5.0 4.0 2.0 5.0 5.0 3.0 7.0 2.0 1.0 8.0 9.0 5.0 4.0 9.0 7.0 5.0 1.0 1.0 2.0 0.0 10.0 0.0 4.0 4.0 10.0 7.0 0.0 3.0 3.0 5.0 4.0 5.0 6.0 10.0 7.0 4.0 8.0 7.0 10.0 5.0 2.0 7.0 9.0 5.0 3.0 0.0 10.0 9.0 3.0 2.0 9.0 9.0 4.0 9.0 1.0 7.0 7.0 2.0 8.0 9.0 3.0 -434.0 4.0 0.0 1.0 7.0 3.0 4.0 1.0 2.0 5.0 0.0 9.0 10.0 9.0 5.0 5.0 9.0 10.0 10.0 0.0 2.0 
4.0 9.0 2.0 10.0 6.0 1.0 7.0 5.0 10.0 9.0 9.0 6.0 9.0 10.0 6.0 6.0 0.0 2.0 1.0 5.0 7.0 5.0 8.0 5.0 7.0 8.0 4.0 1.0 5.0 10.0 5.0 8.0 4.0 7.0 3.0 2.0 4.0 6.0 3.0 2.0 8.0 10.0 2.0 7.0 9.0 3.0 6.0 9.0 0.0 9.0 7.0 0.0 2.0 1.0 9.0 9.0 7.0 3.0 1.0 6.0 7.0 5.0 5.0 0.0 3.0 3.0 4.0 -424.0 3.0 9.0 0.0 5.0 1.0 10.0 1.0 2.0 5.0 1.0 1.0 6.0 0.0 0.0 10.0 1.0 9.0 0.0 4.0 
3.0 9.0 10.0 1.0 8.0 1.0 4.0 7.0 3.0 6.0 10.0 2.0 4.0 6.0 9.0 10.0 7.0 5.0 6.0 8.0 0.0 9.0 6.0 2.0 3.0 3.0 10.0 5.0 9.0 0.0 7.0 9.0 3.0 7.0 9.0 0.0 3.0 1.0 5.0 10.0 7.0 7.0 8.0 2.0 5.0 5.0 0.0 6.0 7.0 7.0 8.0 4.0 1.0 9.0 7.0 8.0 1.0 9.0 10.0 9.0 9.0 2.0 3.0 0.0 2.0 8.0 0.0 3.0 -474.0 10.0 4.0 9.0 10.0 9.0 9.0 5.0 5.0 4.0 8.0 10.0 3.0 0.0 7.0 2.0 5.0 7.0 0.0 
1.0 5.0 1.0 6.0 8.0 0.0 3.0 9.0 5.0 7.0 7.0 0.0 3.0 4.0 10.0 0.0 9.0 6.0 5.0 1.0 1.0 10.0 5.0 2.0 8.0 0.0 6.0 2.0 7.0 7.0 2.0 4.0 9.0 4.0 5.0 9.0 8.0 0.0 7.0 9.0 6.0 1.0 9.0 8.0 5.0 8.0 4.0 7.0 6.0 10.0 4.0 6.0 6.0 8.0 9.0 3.0 8.0 5.0 9.0 9.0 2.0 0.0 1.0 0.0 10.0 0.0 1.0 9.0 10.0 -460.0 4.0 4.0 9.0 6.0 5.0 1.0 9.0 10.0 7.0 6.0 10.0 0.0 5.0 10.0 2.0 6.0 7.0 
6.0 9.0 9.0 2.0 7.0 4.0 2.0 1.0 2.0 4.0 0.0 10.0 1.0 7.0 4.0 5.0 10.0 9.0 2.0 7.0 9.0 1.0 8.0 10.0 5.0 3.0 8.0 8.0 0.0 5.0 8.0 6.0 5.0 9.0 10.0 8.0 3.0 8.0 5.0 0.0 1.0 4.0 4.0 6.0 6.0 6.0 6.0 10.0 2.0 3.0 8.0 1.0 6.0 6.0 1.0 1.0 6.0 2.0 1.0 6.0 6.0 2.0 7.0 1.0 10.0 9.0 7.0 0.0 4.0 4.0 -433.0 1.0 5.0 4.0 1.0 6.0 9.0 6.0 7.0 2.0 7.0 3.0 4.0 4.0 5.0 9.0 4.0 
7.0 9.0 10.0 5.0 10.0 9.0 5.0 7.0 3.0 7.0 2.0 9.0 5.0 0.0 6.0 5.0 7.0 8.0 9.0 2.0 10.0 1.0 8.0 5.0 10.0 2.0 4.0 9.0 8.0 6.0 7.0 4.0 8.0 5.0 6.0 10.0 0.0 9.0 4.0 9.0 2.0 1.0 1.0 4.0 6.0 0.0 1.0 4.0 2.0 10.0 1.0 8.0 5.0 2.0 10.0 7.0 5.0 8.0 4.0 5.0 1.0 6.0 4.0 9.0 7.0 2.0 3.0 5.0 9.0 4.0 1.0 -481.0 10.0 2.0 7.0 3.0 9.0 10.0 2.0 10.0 7.0 5.0 6.0 5.0 8.0 10.0 0.0 
8.0 2.0 1.0 0.0 3.0 4.0 0.0 10.0 6.0 5.0 3.0 4.0 9.0 9.0 8.0 7.0 0.0 7.0 10.0 9.0 3.0 7.0 7.0 2.0 7.0 10.0 7.0 5.0 2.0 4.0 9.0 5.0 5.0 1.0 3.0 0.0 6.0 0.0 3.0 8.0 8.0 6.0 3.0 1.0 1.0 1.0 8.0 7.0 0.0 3.0 8.0 1.0 3.0 2.0 10.0 4.0 6.0 10.0 8.0 6.0 8.0 7.0 10.0 4.0 9.0 5.0 4.0 1.0 10.0 9.0 5.0 10.0 -435.0 2.0 2.0 8.0 0.0 7.0 1.0 6.0 9.0 0.0 8.0 2.0 5.0 1.0 7.0 
8.0 0.0 7.0 2.0 4.0 6.0 9.0 1.0 5.0 3.0 10.0 8.0 4.0 1.0 3.0 5.0 0.0 5.0 5.0 4.0 6.0 1.0 5.0 8.0 6.0 10.0 1.0 0.0 5.0 8.0 7.0 2.0 7.0 1.0 9.0 0.0 10.0 0.0 6.0 10.0 7.0 3.0 2.0 8.0 10.0 7.0 4.0 9.0 3.0 10.0 9.0 0.0 2.0 10.0 9.0 7.0 9.0 7.0 0.0 4.0 1.0 3.0 1.0 6.0 7.0 8.0 1.0 10.0 9.0 6.0 4.0 2.0 2.0 -440.0 0.0 0.0 4.0 9.0 6.0 7.0 4.0 0.0 9.0 3.0 9.0 8.0 9.0 
2.0 0.0 3.0 6.0 2.0 10.0 7.0 2.0 6.0 8.0 10.0 5.0 1.0 6.0 7.0 1.0 5.0 9.0 5.0 1.0 3.0 4.0 4.0 3.0 7.0 6.0 3.0 5.0 2.0 9.0 5.0 7.0 9.0 7.0 0.0 3.0 8.0 3.0 2.0 6.0 5.0 6.0 4.0 0.0 8.0 2.0 1.0 3.0 10.0 10.0 2.0 5.0 4.0 2.0 8.0 2.0 9.0 1.0 7.0 6.0 7.0 6.0 6.0 7.0 8.0 4.0 2.0 1.0 9.0 5.0 1.0 7.0 2.0 0.0 -415.0 5.0 0.0 7.0 10.0 7.0 2.0 4.0 10.0 7.0 9.0 0.0 2.0 
10.0 0.0 4.0 0.0 5.0 10.0 7.0 8.0 1.0 2.0 0.0 1.0 4.0 3.0 7.0 2.0 7.0 9.0 10.0 3.0 8.0 7.0 2.0 1.0 7.0 5.0 0.0 2.0 5.0 2.0 5.0 9.0 4.0 1.0 4.0 0.0 2.0 8.0 7.0 9.0 0.0 6.0 5.0 7.0 4.0 7.0 2.0 10.0 8.0 3.0 9.0 8.0 10.0 4.0 0.0 1.0 4.0 3.0 9.0 10.0 1.0 9.0 10.0 9.0 4.0 5.0 5.0 2.0 5.0 1.0 6.0 3.0 8.0 0.0 5.0 -415.0 7.0 2.0 8.0 2.0 1.0 3.0 6.0 5.0 8.0 3.0 6.0 
4.0 0.0 10.0 5.0 5.0 8.0 9.0 3.0 2.0 5.0 9.0 3.0 3.0 5.0 6.0 9.0 7.0 0.0 3.0 8.0 4.0 1.0 6.0 8.0 3.0 10.0 7.0 6.0 3.0 6.0 10.0 4.0 4.0 6.0 0.0 5.0 0.0 4.0 4.0 9.0 10.0 4.0 10.0 4.0 9.0 5.0 3.0 5.0 1.0 1.0 2.0 4.0 3.0 4.0 9.0 6.0 9.0 3.0 5.0 9.0 4.0 0.0 6.0 1.0 2.0 7.0 0.0 5.0 5.0 9.0 9.0 9.0 0.0 4.0 0.0 7.0 -431.0 5.0 2.0 9.0 9.0 0.0 2.0 6.0 5.0 5.0 10.0 
7.0 0.0 6.0 3.0 3.0 10.0 8.0 7.0 0.0 2.0 9.0 7.0 4.0 9.0 2.0 8.0 0.0 0.0 7.0 7.0 7.0 2.0 6.0 10.0 0.0 8.0 9.0 3.0 6.0 2.0 6.0 9.0 6.0 10.0 0.0 1.0 8.0 10.0 9.0 10.0 8.0 0.0 1.0 10.0 8.0 0.0 5.0 1.0 8.0 8.0 1.0 3.0 7.0 5.0 4.0 9.0 8.0 6.0 9.0 10.0 9.0 5.0 5.0 1.0 8.0 0.0 9.0 1.0 4.0 10.0 6.0 10.0 7.0 9.0 7.0 2.0 5.0 -473.0 6.0 0.0 3.0 0.0 8.0 9.0 1.0 10.0 6.0 
7.0 0.0 6.0 6.0 7.0 4.0 9.0 6.0 7.0 4.0 9.0 0.0 1.0 6.0 7.0 8.0 10.0 8.0 2.0 9.0 7.0 6.0 5.0 3.0 6.0 8.0 1.0 5.0 10.0 2.0 5.0 7.0 8.0 5.0 5.0 7.0 9.0 1.0 8.0 6.0 6.0 2.0 9.0 9.0 1.0 10.0 7.0 10.0 2.0 9.0 2.0 10.0 0.0 7.0 5.0 5.0 3.0 0.0 9.0 6.0 7.0 5.0 2.0 4.0 6.0 2.0 10.0 1.0 8.0 7.0 7.0 2.0 1.0 6.0 10.0 8.0 2.0 6.0 -489.0 9.0 8.0 8.0 3.0 10.0 7.0 7.0 1.0 
2.0 0.0 0.0 4.0 7.0 5.0 10.0 8.0 1.0 3.0 1.0 1.0 2.0 5.0 1.0 1.0 9.0 8.0 7.0 0.0 0.0 5.0 0.0 10.0 1.0 1.0 7.0 4.0 0.0 1.0 10.0 8.0 1.0 2.0 0.0 6.0 1.0 10.0 8.0 3.0 5.0 8.0 10.0 6.0 10.0 1.0 1.0 3.0 7.0 6.0 6.0 9.0 10.0 7.0 4.0 0.0 9.0 10.0 6.0 6.0 6.0 1.0 7.0 3.0 0.0 7.0 9.0 6.0 10.0 6.0 2.0 10.0 6.0 7.0 7.0 2.0 9.0 0.0 9.0 -400.0 7.0 1.0 1.0 4.0 3.0 0.0 0.0 
7.0 0.0 5.0 4.0 10.0 7.0 3.0 10.0 8.0 0.0 0.0 5.0 1.0 9.0 5.0 6.0 4.0 10.0 8.0 7.0 6.0 5.0 3.0 6.0 6.0 1.0 6.0 10.0 5.0 6.0 8.0 3.0 5.0 5.0 8.0 0.0 8.0 10.0 7.0 8.0 3.0 7.0 7.0 2.0 1.0 2.0 1.0 1.0 10.0 3.0 1.0 8.0 6.0 8.0 6.0 6.0 10.0 7.0 6.0 1.0 0.0 5.0 8.0 6.0 4.0 2.0 5.0 0.0 3.0 10.0 7.0 7.0 9.0 4.0 2.0 1.0 9.0 3.0 8.0 7.0 -445.0 1.0 1.0 3.0 9.0 9.0 1.0 
4.0 0.0 7.0 3.0 7.0 1.0 4.0 4.0 8.0 2.0 7.0 2.0 10.0 7.0 7.0 3.0 7.0 10.0 8.0 4.0 10.0 6.0 6.0 8.0 4.0 5.0 4.0 9.0 5.0 5.0 2.0 1.0 0.0 4.0 0.0 9.0 4.0 3.0 2.0 8.0 8.0 4.0 8.0 5.0 7.0 1.0 9.0 5.0 1.0 3.0 9.0 9.0 5.0 4.0 10.0 5.0 1.0 7.0 5.0 3.0 4.0 7.0 9.0 2.0 7.0 0.0 5.0 0.0 0.0 0.0 3.0 5.0 0.0 0.0 4.0 3.0 0.0 0.0 8.0 1.0 1.0 -401.0 5.0 8.0 4.0 10.0 6.0 
2.0 0.0 0.0 6.0 2.0 5.0 3.0 5.0 4.0 9.0 7.0 9.0 10.0 6.0 4.0 0.0 1.0 9.0 7.0 7.0 2.0 2.0 8.0 9.0 6.0 9.0 5.0 5.0 7.0 4.0 1.0 5.0 7.0 0.0 0.0 10.0 5.0 3.0 5.0 6.0 7.0 9.0 3.0 8.0 2.0 1.0 10.0 1.0 5.0 0.0 4.0 6.0 9.0 9.0 6.0 8.0 3.0 4.0 10.0 5.0 2.0 4.0 9.0 9.0 6.0 5.0 9.0 10.0 7.0 5.0 4.0 6.0 8.0 9.0 10.0 6.0 2.0 8.0 3.0 1.0 1.0 5.0 -469.0 7.0 10.0 9.0 9.0 
2.0 0.0 9.0 10.0 9.0 7.0 3.0 8.0 7.0 6.0 5.0 10.0 0.0 8.0 5.0 7.0 9.0 6.0 6.0 5.0 3.0 4.0 0.0 10.0 5.0 4.0 8.0 9.0 0.0 8.0 8.0 10.0 1.0 5.0 10.0 9.0 9.0 8.0 4.0 0.0 9.0 6.0 1.0 8.0 8.0 3.0 7.0 8.0 8.0 9.0 4.0 5.0 6.0 1.0 1.0 2.0 8.0 6.0 10.0 5.0 10.0 3.0 5.0 8.0 1.0 3.0 10.0 1.0 2.0 10.0 4.0 5.0 2.0 3.0 7.0 5.0 6.0 9.0 10.0 4.0 3.0 8.0 7.0 -489.0 4.0 5.0 2.0 
0.0 0.0 10.0 1.0 9.0 10.0 8.0 5.0 0.0 10.0 7.0 0.0 2.0 10.0 9.0 9.0 6.0 1.0 9.0 1.0 6.0 3.0 10.0 3.0 5.0 0.0 9.0 0.0 5.0 2.0 2.0 3.0 3.0 4.0 5.0 0.0 2.0 5.0 0.0 3.0 8.0 0.0 4.0 1.0 5.0 6.0 3.0 9.0 7.0 3.0 7.0 1.0 1.0 10.0 2.0 6.0 2.0 5.0 5.0 10.0 4.0 8.0 6.0 2.0 10.0 3.0 10.0 9.0 5.0 2.0 5.0 8.0 5.0 9.0 9.0 8.0 5.0 1.0 7.0 3.0 9.0 4.0 10.0 4.0 -425.0 7.0 0.0 
0.0 0.0 8.0 9.0 8.0 2.0 9.0 9.0 9.0 4.0 5.0 1.0 7.0 5.0 9.0 0.0 10.0 5.0 9.0 9.0 4.0 4.0 4.0 10.0 0.0 6.0 3.0 5.0 1.0 9.0 6.0 5.0 2.0 2.0 4.0 9.0 4.0 6.0 7.0 1.0 9.0 6.0 5.0 6.0 4.0 6.0 2.0 0.0 2.0 5.0 8.0 7.0 2.0 1.0 9.0 2.0 8.0 2.0 1.0 2.0 10.0 3.0 0.0 3.0 8.0 0.0 0.0 0.0 7.0 6.0 9.0 10.0 1.0 8.0 0.0 3.0 5.0 10.0 7.0 0.0 9.0 10.0 9.0 5.0 7.0 -427.0 0.0 
0.0 0.0 8.0 9.0 9.0 0.0 3.0 10.0 1.0 9.0 8.0 1.0 9.0 6.0 0.0 3.0 6.0 5.0 3.0 2.0 0.0 7.0 2.0 10.0 8.0 5.0 10.0 3.0 4.0 5.0 7.0 9.0 5.0 5.0 8.0 8.0 9.0 5.0 2.0 10.0 9.0 10.0 9.0 6.0 1.0 5.0 8.0 10.0 10.0 3.0 3.0 1.0 6.0 10.0 4.0 10.0 2.0 9.0 6.0 9.0 5.0 3.0 0.0 7.0 5.0 3.0 2.0 4.0 0.0 7.0 4.0 0.0 7.0 9.0 2.0 6.0 10.0 6.0 1.0 0.0 1.0 6.0 9.0 2.0 0.0 0.0 -444.0 

